problem_generation/data/GISP/train/er_n=60_m=1031_p=0.60_SET2_setparam=100.00_alpha=0.50_616.lp
maximize
OBJ:100x0 + 100x1 + 100x2 + 100x3 + 100x4 + 100x5 + 100x6 + 100x7 + 100x8 + 100x9 + 100x10 + 100x11 + 100x12 + 100x13 + 100x14 + 100x15 + 100x16 + 100x17 + 100x18 + 100x19 + 100x20 + 100x21 + 100x22 + 100x23 + 100x24 + 100x25 + 100x26 + 100x27 + 100x28 + 100x29 + 100x30 + 100x31 + 100x32 + 100x33 + 100x34 + 100x35 + 100x36 + 100x37 + 100x38 + 100x39 + 100x40 + 100x41 + 100x42 + 100x43 + 100x44 + 100x45 + 100x46 + 100x47 + 100x48 + 100x49 + 100x50 + 100x51 + 100x52 + 100x53 + 100x54 + 100x55 + 100x56 + 100x57 + 100x58 + 100x59 - y7_35 - y0_5 - y8_18 - y48_54 - y21_46 - y6_57 - y40_59 - y10_27 - y10_45 - y10_54 - y44_56 - y2_59 - y22_37 - y14_33 - y3_42 - y7_12 - y36_57 - y47_57 - y7_30 - y9_49 - y48_49 - y21_32 - y40_54 - y21_50 - y2_27 - y25_29 - y25_38 - y2_45 - y2_54 - y3_19 - y3_28 - y14_28 - y14_37 - y55_56 - y7_16 - y17_48 - y5_55 - y28_57 - y40_58 - y10_35 - y33_37 - y10_44 - y3_5 - y32_41 - y51_54 - y14_23 - y43_59 - y28_34 - y47_56 - y9_48 - y50_58 - y21_31 - y29_44 - y40_44 - y10_21 - y20_53 - y2_26 - y24_32 - y35_41 - y32_54 - y16_37 - y13_59 - y35_59 - y17_38 - y28_38 - y36_51 - y9_34 - y17_56 - y5_54 - y6_28 - y6_37 - y21_35 - y6_46 - y20_39 - y10_25 - y12_44 - y31_57 - y12_53 - y2_30 - y13_27 - y4_58 - y35_45 - y32_58 - y16_41 - y1_52 - y16_59 - y5_31 - y28_33 - y9_29 - y5_40 - y50_57 - y42_53 - y39_47 - y32_35 - y43_44 - y16_27 - y13_40 - y13_49 - y35_49 - y17_19 - y38_51 - y17_28 - y5_44 - y50_52 - y19_46 - y19_55 - y0_51 - y12_25 - y39_51 - y4_30 - y20_56 - y31_56 - y24_26 - y4_57 - y16_31 - y13_44 - y35_44 - y16_40 - y1_51 - y16_49 - y38_55 - y27_36 - y19_41 - y42_43 - y27_54 - y0_37 - y11_37 - y42_52 - y50_56 - y8_59 - y11_55 - y12_20 - y31_33 - y12_38 - y20_51 - y4_34 - y34_53 - y13_30 - y37_58 - y16_35 - y46_54 - y38_50 - y26_57 - y49_59 - y18_53 - y8_27 - y50_51 - y8_54 - y11_50 - y13_16 - y34_48 - y45_48 - y16_21 - y45_57 - y1_32 - y3_51 - y16_30 - y18_39 - y15_52 - y26_52 - y7_48 - y11_18 - y8_31 - y30_40 - y27_53 - y0_36 - y19_49 - y0_45 - y4_6 - y0_54 - y11_54 - y52_55 - y20_32 - y33_51 - y12_37 - y23_37 - y25_56 - y1_9 - y22_50 - y34_52 - y45_52 - y3_46 - y3_55 - y37_57 - y26_29 - y5_6 - y26_38 - y7_43 - y15_56 - y7_52 - y11_13 - y8_26 - y11_31 - y8_44 - y19_44 - y0_40 - y11_49 - y4_10 - y44_46 - y12_23 - y52_59 - y4_28 - y1_4 - y2_58 - y45_47 - y3_41 - y14_41 - y37_43 - y3_59 - y15_33 - y15_42 - y18_38 - y15_51 - y26_51 - y8_21 - y0_17 - y8_30 - y11_26 - y0_35 - y41_54 - y2_44 - y10_57 - y33_59 - y3_27 - y15_37 - y7_33 - y29_39 - y11_12 - y29_48 - y19_25 - y21_44 - y29_57 - y10_34 - y41_49 - y25_32 - y33_45 - y44_54 - y25_59 - y34_37 - y14_40 - y7_10 - y36_46 - y15_23 - y55_59 - y7_28 - y9_56 - y29_34 - y8_11 - y0_7 - y21_39 - y11_16 - y10_29 - y2_34 - y25_45 - y10_56 - y3_17 - y14_17 - y3_26 - y13_58 - y24_58 - y3_35 - y14_35 - y36_50 - y47_59 - y28_55 - y21_25 - y6_36 - y29_38 - y21_34 - y6_45 - y21_43 - y29_56 - y10_15 - y10_24 - y10_42 - y10_51 - y51_52 - y32_48 - y13_53 - y35_53 - y17_32 - y28_41 - y9_37 - y28_50 - y9_46 - y5_57 - y28_59 - y6_40 - y29_42 - y29_51 - y2_6 - y39_55 - y25_26 - y32_34 - y2_42 - y32_43 - y13_39 - y14_16 - y13_48 - y35_48 - y3_25 - y14_25 - y17_36 - y47_49 - y9_41 - y5_52 - y21_24 - y21_33 - y21_42 - y10_14 - y2_10 - y10_23 - y2_19 - y2_37 - y32_47 - y35_43 - y43_56 - y16_39 - y1_50 - y24_52 - y16_57 - y5_20 - y5_29 - y17_31 - y9_36 - y5_56 - y20_41 - y31_41 - y23_46 - y20_59 - y23_55 - y16_25 - y1_36 - y13_38 - y32_51 - y13_47 - y24_47 - y13_56 - y24_56 - y46_53 - y38_58 - y5_33 - y6_7 - y42_46 - y21_23 - y8_53 - y0_58 - y11_58 - y39_40 - y20_36 - y39_49 - y12_32 - y2_9 - y23_41 - y54_56 - y4_37 - y12_50 - y32_37 - y32_46 - y43_46 - y35_42 - y1_49 - y35_51 - y46_48 - y5_19 - y9_17 - y5_37 - y19_39 - y8_57 - y19_57 - y30_57 - y11_53 - y42_59 - y12_27 - y23_27 - y2_4 - y4_23 - y4_32 - y20_58 - y1_17 - y4_50 - y24_28 - y1_35 - y35_37 - y15_46 - y49_57 - y5_32 - y27_29 - y30_34 - y42_45 - y8_52 - y42_54 - y11_48 - y12_13 - y20_26 - y0_57 - y20_35 - y31_44 - y1_3 - y12_49 - y34_46 - y45_46 - y1_21 - y37_51 - y16_28 - y1_39 - y26_41 - y5_18 - y9_16 - y7_55 - y0_25 - y11_25 - y8_38 - y8_47 - y11_52 - y12_17 - y20_30 - y4_22 - y44_58 - y23_44 - y4_40 - y1_25 - y45_59 - y56_59 - y37_55 - y26_27 - y15_36 - y46_51 - y7_32 - y15_45 - y38_56 - y7_50 - y0_11 - y7_59 - y19_24 - y11_20 - y11_29 - y30_42 - y0_47 - y41_48 - y4_8 - y12_21 - y44_53 - y23_30 - y4_26 - y1_2 - y34_45 - y3_39 - y14_48 - y3_57 - y14_57 - y7_18 - y15_31 - y26_31 - y7_27 - y26_40 - y38_42 - y7_45 - y8_10 - y26_58 - y7_54 - y48_55 - y11_24 - y19_37 - y30_37 - y33_39 - y41_52 - y4_12 - y33_48 - y10_55 - y33_57 - y25_53 - y22_38 - y34_40 - y3_34 - y14_34 - y22_56 - y45_58 - y14_52 - y7_22 - y18_31 - y18_49 - y8_14 - y48_50 - y29_46 - y48_59 - y40_55 - y30_32 - y21_51 - y41_47 - y33_52 - y44_52 - y25_48 - y2_55 - y3_20 - y14_20 - y25_57 - y34_35 - y3_29 - y14_29 - y22_42 - y22_51
 Subject to
C1: x0+x1 <=1 
C2: x0+x2 <=1 
C3: x0+x4 <=1 
C4: x0+x5-y0_5 <=1 
C5: x0+x6 <=1 
C6: x0+x7-y0_7 <=1 
C7: x0+x8 <=1 
C8: x0+x9 <=1 
C9: x0+x11-y0_11 <=1 
C10: x0+x17-y0_17 <=1 
C11: x0+x19 <=1 
C12: x0+x20 <=1 
C13: x0+x23 <=1 
C14: x0+x24 <=1 
C15: x0+x25-y0_25 <=1 
C16: x0+x27 <=1 
C17: x0+x28 <=1 
C18: x0+x30 <=1 
C19: x0+x31 <=1 
C20: x0+x33 <=1 
C21: x0+x35-y0_35 <=1 
C22: x0+x36-y0_36 <=1 
C23: x0+x37-y0_37 <=1 
C24: x0+x40-y0_40 <=1 
C25: x0+x45-y0_45 <=1 
C26: x0+x46 <=1 
C27: x0+x47-y0_47 <=1 
C28: x0+x49 <=1 
C29: x0+x51-y0_51 <=1 
C30: x0+x52 <=1 
C31: x0+x53 <=1 
C32: x0+x54-y0_54 <=1 
C33: x0+x57-y0_57 <=1 
C34: x0+x58-y0_58 <=1 
C35: x1+x2-y1_2 <=1 
C36: x1+x3-y1_3 <=1 
C37: x1+x4-y1_4 <=1 
C38: x1+x5 <=1 
C39: x1+x6 <=1 
C40: x1+x7 <=1 
C41: x1+x8 <=1 
C42: x1+x9-y1_9 <=1 
C43: x1+x11 <=1 
C44: x1+x12 <=1 
C45: x1+x15 <=1 
C46: x1+x16 <=1 
C47: x1+x17-y1_17 <=1 
C48: x1+x18 <=1 
C49: x1+x21-y1_21 <=1 
C50: x1+x23 <=1 
C51: x1+x24 <=1 
C52: x1+x25-y1_25 <=1 
C53: x1+x27 <=1 
C54: x1+x28 <=1 
C55: x1+x32-y1_32 <=1 
C56: x1+x33 <=1 
C57: x1+x34 <=1 
C58: x1+x35-y1_35 <=1 
C59: x1+x36-y1_36 <=1 
C60: x1+x37 <=1 
C61: x1+x39-y1_39 <=1 
C62: x1+x41 <=1 
C63: x1+x42 <=1 
C64: x1+x43 <=1 
C65: x1+x45 <=1 
C66: x1+x48 <=1 
C67: x1+x49-y1_49 <=1 
C68: x1+x50-y1_50 <=1 
C69: x1+x51-y1_51 <=1 
C70: x1+x52-y1_52 <=1 
C71: x1+x54 <=1 
C72: x1+x57 <=1 
C73: x2+x4-y2_4 <=1 
C74: x2+x6-y2_6 <=1 
C75: x2+x9-y2_9 <=1 
C76: x2+x10-y2_10 <=1 
C77: x2+x11 <=1 
C78: x2+x12 <=1 
C79: x2+x13 <=1 
C80: x2+x14 <=1 
C81: x2+x19-y2_19 <=1 
C82: x2+x21 <=1 
C83: x2+x22 <=1 
C84: x2+x23 <=1 
C85: x2+x24 <=1 
C86: x2+x25 <=1 
C87: x2+x26-y2_26 <=1 
C88: x2+x27-y2_27 <=1 
C89: x2+x28 <=1 
C90: x2+x30-y2_30 <=1 
C91: x2+x34-y2_34 <=1 
C92: x2+x35 <=1 
C93: x2+x37-y2_37 <=1 
C94: x2+x40 <=1 
C95: x2+x42-y2_42 <=1 
C96: x2+x43 <=1 
C97: x2+x44-y2_44 <=1 
C98: x2+x45-y2_45 <=1 
C99: x2+x48 <=1 
C100: x2+x50 <=1 
C101: x2+x51 <=1 
C102: x2+x54-y2_54 <=1 
C103: x2+x55-y2_55 <=1 
C104: x2+x57 <=1 
C105: x2+x58-y2_58 <=1 
C106: x2+x59-y2_59 <=1 
C107: x3+x4 <=1 
C108: x3+x5-y3_5 <=1 
C109: x3+x7 <=1 
C110: x3+x8 <=1 
C111: x3+x11 <=1 
C112: x3+x13 <=1 
C113: x3+x14 <=1 
C114: x3+x17-y3_17 <=1 
C115: x3+x19-y3_19 <=1 
C116: x3+x20-y3_20 <=1 
C117: x3+x22 <=1 
C118: x3+x25-y3_25 <=1 
C119: x3+x26-y3_26 <=1 
C120: x3+x27-y3_27 <=1 
C121: x3+x28-y3_28 <=1 
C122: x3+x29-y3_29 <=1 
C123: x3+x30 <=1 
C124: x3+x31 <=1 
C125: x3+x32 <=1 
C126: x3+x33 <=1 
C127: x3+x34-y3_34 <=1 
C128: x3+x35-y3_35 <=1 
C129: x3+x36 <=1 
C130: x3+x39-y3_39 <=1 
C131: x3+x41-y3_41 <=1 
C132: x3+x42-y3_42 <=1 
C133: x3+x44 <=1 
C134: x3+x46-y3_46 <=1 
C135: x3+x51-y3_51 <=1 
C136: x3+x52 <=1 
C137: x3+x55-y3_55 <=1 
C138: x3+x56 <=1 
C139: x3+x57-y3_57 <=1 
C140: x3+x58 <=1 
C141: x3+x59-y3_59 <=1 
C142: x4+x5 <=1 
C143: x4+x6-y4_6 <=1 
C144: x4+x7 <=1 
C145: x4+x8-y4_8 <=1 
C146: x4+x10-y4_10 <=1 
C147: x4+x12-y4_12 <=1 
C148: x4+x14 <=1 
C149: x4+x17 <=1 
C150: x4+x19 <=1 
C151: x4+x22-y4_22 <=1 
C152: x4+x23-y4_23 <=1 
C153: x4+x24 <=1 
C154: x4+x25 <=1 
C155: x4+x26-y4_26 <=1 
C156: x4+x28-y4_28 <=1 
C157: x4+x29 <=1 
C158: x4+x30-y4_30 <=1 
C159: x4+x32-y4_32 <=1 
C160: x4+x33 <=1 
C161: x4+x34-y4_34 <=1 
C162: x4+x35 <=1 
C163: x4+x36 <=1 
C164: x4+x37-y4_37 <=1 
C165: x4+x38 <=1 
C166: x4+x40-y4_40 <=1 
C167: x4+x41 <=1 
C168: x4+x43 <=1 
C169: x4+x44 <=1 
C170: x4+x46 <=1 
C171: x4+x47 <=1 
C172: x4+x50-y4_50 <=1 
C173: x4+x51 <=1 
C174: x4+x52 <=1 
C175: x4+x53 <=1 
C176: x4+x54 <=1 
C177: x4+x57-y4_57 <=1 
C178: x4+x58-y4_58 <=1 
C179: x4+x59 <=1 
C180: x5+x6-y5_6 <=1 
C181: x5+x7 <=1 
C182: x5+x8 <=1 
C183: x5+x9 <=1 
C184: x5+x10 <=1 
C185: x5+x11 <=1 
C186: x5+x14 <=1 
C187: x5+x16 <=1 
C188: x5+x18-y5_18 <=1 
C189: x5+x19-y5_19 <=1 
C190: x5+x20-y5_20 <=1 
C191: x5+x23 <=1 
C192: x5+x25 <=1 
C193: x5+x28 <=1 
C194: x5+x29-y5_29 <=1 
C195: x5+x31-y5_31 <=1 
C196: x5+x32-y5_32 <=1 
C197: x5+x33-y5_33 <=1 
C198: x5+x34 <=1 
C199: x5+x37-y5_37 <=1 
C200: x5+x40-y5_40 <=1 
C201: x5+x42 <=1 
C202: x5+x43 <=1 
C203: x5+x44-y5_44 <=1 
C204: x5+x49 <=1 
C205: x5+x52-y5_52 <=1 
C206: x5+x53 <=1 
C207: x5+x54-y5_54 <=1 
C208: x5+x55-y5_55 <=1 
C209: x5+x56-y5_56 <=1 
C210: x5+x57-y5_57 <=1 
C211: x6+x7-y6_7 <=1 
C212: x6+x9 <=1 
C213: x6+x12 <=1 
C214: x6+x14 <=1 
C215: x6+x16 <=1 
C216: x6+x18 <=1 
C217: x6+x22 <=1 
C218: x6+x25 <=1 
C219: x6+x26 <=1 
C220: x6+x28-y6_28 <=1 
C221: x6+x29 <=1 
C222: x6+x30 <=1 
C223: x6+x32 <=1 
C224: x6+x35 <=1 
C225: x6+x36-y6_36 <=1 
C226: x6+x37-y6_37 <=1 
C227: x6+x38 <=1 
C228: x6+x39 <=1 
C229: x6+x40-y6_40 <=1 
C230: x6+x41 <=1 
C231: x6+x42 <=1 
C232: x6+x45-y6_45 <=1 
C233: x6+x46-y6_46 <=1 
C234: x6+x47 <=1 
C235: x6+x50 <=1 
C236: x6+x56 <=1 
C237: x6+x57-y6_57 <=1 
C238: x6+x59 <=1 
C239: x7+x8 <=1 
C240: x7+x10-y7_10 <=1 
C241: x7+x12-y7_12 <=1 
C242: x7+x13 <=1 
C243: x7+x15 <=1 
C244: x7+x16-y7_16 <=1 
C245: x7+x18-y7_18 <=1 
C246: x7+x19 <=1 
C247: x7+x22-y7_22 <=1 
C248: x7+x27-y7_27 <=1 
C249: x7+x28-y7_28 <=1 
C250: x7+x29 <=1 
C251: x7+x30-y7_30 <=1 
C252: x7+x32-y7_32 <=1 
C253: x7+x33-y7_33 <=1 
C254: x7+x35-y7_35 <=1 
C255: x7+x37 <=1 
C256: x7+x39 <=1 
C257: x7+x40 <=1 
C258: x7+x43-y7_43 <=1 
C259: x7+x44 <=1 
C260: x7+x45-y7_45 <=1 
C261: x7+x46 <=1 
C262: x7+x48-y7_48 <=1 
C263: x7+x49 <=1 
C264: x7+x50-y7_50 <=1 
C265: x7+x51 <=1 
C266: x7+x52-y7_52 <=1 
C267: x7+x54-y7_54 <=1 
C268: x7+x55-y7_55 <=1 
C269: x7+x56 <=1 
C270: x7+x57 <=1 
C271: x7+x59-y7_59 <=1 
C272: x8+x9 <=1 
C273: x8+x10-y8_10 <=1 
C274: x8+x11-y8_11 <=1 
C275: x8+x12 <=1 
C276: x8+x13 <=1 
C277: x8+x14-y8_14 <=1 
C278: x8+x17 <=1 
C279: x8+x18-y8_18 <=1 
C280: x8+x20 <=1 
C281: x8+x21-y8_21 <=1 
C282: x8+x22 <=1 
C283: x8+x23 <=1 
C284: x8+x24 <=1 
C285: x8+x26-y8_26 <=1 
C286: x8+x27-y8_27 <=1 
C287: x8+x30-y8_30 <=1 
C288: x8+x31-y8_31 <=1 
C289: x8+x35 <=1 
C290: x8+x37 <=1 
C291: x8+x38-y8_38 <=1 
C292: x8+x39 <=1 
C293: x8+x44-y8_44 <=1 
C294: x8+x45 <=1 
C295: x8+x47-y8_47 <=1 
C296: x8+x48 <=1 
C297: x8+x50 <=1 
C298: x8+x51 <=1 
C299: x8+x52-y8_52 <=1 
C300: x8+x53-y8_53 <=1 
C301: x8+x54-y8_54 <=1 
C302: x8+x56 <=1 
C303: x8+x57-y8_57 <=1 
C304: x8+x59-y8_59 <=1 
C305: x9+x14 <=1 
C306: x9+x15 <=1 
C307: x9+x16-y9_16 <=1 
C308: x9+x17-y9_17 <=1 
C309: x9+x18 <=1 
C310: x9+x23 <=1 
C311: x9+x25 <=1 
C312: x9+x26 <=1 
C313: x9+x27 <=1 
C314: x9+x29-y9_29 <=1 
C315: x9+x34-y9_34 <=1 
C316: x9+x35 <=1 
C317: x9+x36-y9_36 <=1 
C318: x9+x37-y9_37 <=1 
C319: x9+x40 <=1 
C320: x9+x41-y9_41 <=1 
C321: x9+x45 <=1 
C322: x9+x46-y9_46 <=1 
C323: x9+x47 <=1 
C324: x9+x48-y9_48 <=1 
C325: x9+x49-y9_49 <=1 
C326: x9+x51 <=1 
C327: x9+x52 <=1 
C328: x9+x54 <=1 
C329: x9+x56-y9_56 <=1 
C330: x9+x58 <=1 
C331: x9+x59 <=1 
C332: x10+x11 <=1 
C333: x10+x13 <=1 
C334: x10+x14-y10_14 <=1 
C335: x10+x15-y10_15 <=1 
C336: x10+x16 <=1 
C337: x10+x17 <=1 
C338: x10+x21-y10_21 <=1 
C339: x10+x22 <=1 
C340: x10+x23-y10_23 <=1 
C341: x10+x24-y10_24 <=1 
C342: x10+x25-y10_25 <=1 
C343: x10+x26 <=1 
C344: x10+x27-y10_27 <=1 
C345: x10+x28 <=1 
C346: x10+x29-y10_29 <=1 
C347: x10+x32 <=1 
C348: x10+x33 <=1 
C349: x10+x34-y10_34 <=1 
C350: x10+x35-y10_35 <=1 
C351: x10+x37 <=1 
C352: x10+x40 <=1 
C353: x10+x42-y10_42 <=1 
C354: x10+x43 <=1 
C355: x10+x44-y10_44 <=1 
C356: x10+x45-y10_45 <=1 
C357: x10+x48 <=1 
C358: x10+x51-y10_51 <=1 
C359: x10+x52 <=1 
C360: x10+x54-y10_54 <=1 
C361: x10+x55-y10_55 <=1 
C362: x10+x56-y10_56 <=1 
C363: x10+x57-y10_57 <=1 
C364: x10+x59 <=1 
C365: x11+x12-y11_12 <=1 
C366: x11+x13-y11_13 <=1 
C367: x11+x15 <=1 
C368: x11+x16-y11_16 <=1 
C369: x11+x17 <=1 
C370: x11+x18-y11_18 <=1 
C371: x11+x19 <=1 
C372: x11+x20-y11_20 <=1 
C373: x11+x21 <=1 
C374: x11+x22 <=1 
C375: x11+x24-y11_24 <=1 
C376: x11+x25-y11_25 <=1 
C377: x11+x26-y11_26 <=1 
C378: x11+x28 <=1 
C379: x11+x29-y11_29 <=1 
C380: x11+x31-y11_31 <=1 
C381: x11+x32 <=1 
C382: x11+x33 <=1 
C383: x11+x34 <=1 
C384: x11+x35 <=1 
C385: x11+x37-y11_37 <=1 
C386: x11+x39 <=1 
C387: x11+x43 <=1 
C388: x11+x44 <=1 
C389: x11+x45 <=1 
C390: x11+x48-y11_48 <=1 
C391: x11+x49-y11_49 <=1 
C392: x11+x50-y11_50 <=1 
C393: x11+x52-y11_52 <=1 
C394: x11+x53-y11_53 <=1 
C395: x11+x54-y11_54 <=1 
C396: x11+x55-y11_55 <=1 
C397: x11+x56 <=1 
C398: x11+x58-y11_58 <=1 
C399: x11+x59 <=1 
C400: x12+x13-y12_13 <=1 
C401: x12+x14 <=1 
C402: x12+x16 <=1 
C403: x12+x17-y12_17 <=1 
C404: x12+x20-y12_20 <=1 
C405: x12+x21-y12_21 <=1 
C406: x12+x23-y12_23 <=1 
C407: x12+x25-y12_25 <=1 
C408: x12+x27-y12_27 <=1 
C409: x12+x28 <=1 
C410: x12+x31 <=1 
C411: x12+x32-y12_32 <=1 
C412: x12+x37-y12_37 <=1 
C413: x12+x38-y12_38 <=1 
C414: x12+x43 <=1 
C415: x12+x44-y12_44 <=1 
C416: x12+x45 <=1 
C417: x12+x49-y12_49 <=1 
C418: x12+x50-y12_50 <=1 
C419: x12+x53-y12_53 <=1 
C420: x12+x56 <=1 
C421: x12+x59 <=1 
C422: x13+x14 <=1 
C423: x13+x15 <=1 
C424: x13+x16-y13_16 <=1 
C425: x13+x18 <=1 
C426: x13+x22 <=1 
C427: x13+x23 <=1 
C428: x13+x24 <=1 
C429: x13+x25 <=1 
C430: x13+x26 <=1 
C431: x13+x27-y13_27 <=1 
C432: x13+x29 <=1 
C433: x13+x30-y13_30 <=1 
C434: x13+x31 <=1 
C435: x13+x32 <=1 
C436: x13+x35 <=1 
C437: x13+x36 <=1 
C438: x13+x38-y13_38 <=1 
C439: x13+x39-y13_39 <=1 
C440: x13+x40-y13_40 <=1 
C441: x13+x43 <=1 
C442: x13+x44-y13_44 <=1 
C443: x13+x47-y13_47 <=1 
C444: x13+x48-y13_48 <=1 
C445: x13+x49-y13_49 <=1 
C446: x13+x53-y13_53 <=1 
C447: x13+x56-y13_56 <=1 
C448: x13+x58-y13_58 <=1 
C449: x13+x59-y13_59 <=1 
C450: x14+x16-y14_16 <=1 
C451: x14+x17-y14_17 <=1 
C452: x14+x20-y14_20 <=1 
C453: x14+x21 <=1 
C454: x14+x23-y14_23 <=1 
C455: x14+x24 <=1 
C456: x14+x25-y14_25 <=1 
C457: x14+x27 <=1 
C458: x14+x28-y14_28 <=1 
C459: x14+x29-y14_29 <=1 
C460: x14+x30 <=1 
C461: x14+x31 <=1 
C462: x14+x32 <=1 
C463: x14+x33-y14_33 <=1 
C464: x14+x34-y14_34 <=1 
C465: x14+x35-y14_35 <=1 
C466: x14+x37-y14_37 <=1 
C467: x14+x39 <=1 
C468: x14+x40-y14_40 <=1 
C469: x14+x41-y14_41 <=1 
C470: x14+x43 <=1 
C471: x14+x44 <=1 
C472: x14+x48-y14_48 <=1 
C473: x14+x51 <=1 
C474: x14+x52-y14_52 <=1 
C475: x14+x53 <=1 
C476: x14+x57-y14_57 <=1 
C477: x14+x58 <=1 
C478: x15+x16 <=1 
C479: x15+x17 <=1 
C480: x15+x18 <=1 
C481: x15+x19 <=1 
C482: x15+x20 <=1 
C483: x15+x22 <=1 
C484: x15+x23-y15_23 <=1 
C485: x15+x25 <=1 
C486: x15+x26 <=1 
C487: x15+x28 <=1 
C488: x15+x29 <=1 
C489: x15+x30 <=1 
C490: x15+x31-y15_31 <=1 
C491: x15+x33-y15_33 <=1 
C492: x15+x34 <=1 
C493: x15+x36-y15_36 <=1 
C494: x15+x37-y15_37 <=1 
C495: x15+x39 <=1 
C496: x15+x42-y15_42 <=1 
C497: x15+x44 <=1 
C498: x15+x45-y15_45 <=1 
C499: x15+x46-y15_46 <=1 
C500: x15+x51-y15_51 <=1 
C501: x15+x52-y15_52 <=1 
C502: x15+x53 <=1 
C503: x15+x55 <=1 
C504: x15+x56-y15_56 <=1 
C505: x15+x58 <=1 
C506: x16+x18 <=1 
C507: x16+x19 <=1 
C508: x16+x21-y16_21 <=1 
C509: x16+x22 <=1 
C510: x16+x25-y16_25 <=1 
C511: x16+x27-y16_27 <=1 
C512: x16+x28-y16_28 <=1 
C513: x16+x29 <=1 
C514: x16+x30-y16_30 <=1 
C515: x16+x31-y16_31 <=1 
C516: x16+x33 <=1 
C517: x16+x35-y16_35 <=1 
C518: x16+x37-y16_37 <=1 
C519: x16+x38 <=1 
C520: x16+x39-y16_39 <=1 
C521: x16+x40-y16_40 <=1 
C522: x16+x41-y16_41 <=1 
C523: x16+x42 <=1 
C524: x16+x43 <=1 
C525: x16+x49-y16_49 <=1 
C526: x16+x54 <=1 
C527: x16+x55 <=1 
C528: x16+x56 <=1 
C529: x16+x57-y16_57 <=1 
C530: x16+x58 <=1 
C531: x16+x59-y16_59 <=1 
C532: x17+x19-y17_19 <=1 
C533: x17+x20 <=1 
C534: x17+x26 <=1 
C535: x17+x27 <=1 
C536: x17+x28-y17_28 <=1 
C537: x17+x29 <=1 
C538: x17+x31-y17_31 <=1 
C539: x17+x32-y17_32 <=1 
C540: x17+x34 <=1 
C541: x17+x36-y17_36 <=1 
C542: x17+x37 <=1 
C543: x17+x38-y17_38 <=1 
C544: x17+x41 <=1 
C545: x17+x43 <=1 
C546: x17+x44 <=1 
C547: x17+x48-y17_48 <=1 
C548: x17+x52 <=1 
C549: x17+x53 <=1 
C550: x17+x54 <=1 
C551: x17+x56-y17_56 <=1 
C552: x17+x58 <=1 
C553: x18+x19 <=1 
C554: x18+x21 <=1 
C555: x18+x22 <=1 
C556: x18+x24 <=1 
C557: x18+x25 <=1 
C558: x18+x26 <=1 
C559: x18+x27 <=1 
C560: x18+x28 <=1 
C561: x18+x29 <=1 
C562: x18+x30 <=1 
C563: x18+x31-y18_31 <=1 
C564: x18+x32 <=1 
C565: x18+x33 <=1 
C566: x18+x38-y18_38 <=1 
C567: x18+x39-y18_39 <=1 
C568: x18+x43 <=1 
C569: x18+x49-y18_49 <=1 
C570: x18+x51 <=1 
C571: x18+x53-y18_53 <=1 
C572: x18+x59 <=1 
C573: x19+x21 <=1 
C574: x19+x23 <=1 
C575: x19+x24-y19_24 <=1 
C576: x19+x25-y19_25 <=1 
C577: x19+x26 <=1 
C578: x19+x27 <=1 
C579: x19+x29 <=1 
C580: x19+x31 <=1 
C581: x19+x34 <=1 
C582: x19+x35 <=1 
C583: x19+x37-y19_37 <=1 
C584: x19+x38 <=1 
C585: x19+x39-y19_39 <=1 
C586: x19+x40 <=1 
C587: x19+x41-y19_41 <=1 
C588: x19+x42 <=1 
C589: x19+x43 <=1 
C590: x19+x44-y19_44 <=1 
C591: x19+x45 <=1 
C592: x19+x46-y19_46 <=1 
C593: x19+x47 <=1 
C594: x19+x49-y19_49 <=1 
C595: x19+x55-y19_55 <=1 
C596: x19+x57-y19_57 <=1 
C597: x20+x21 <=1 
C598: x20+x25 <=1 
C599: x20+x26-y20_26 <=1 
C600: x20+x27 <=1 
C601: x20+x30-y20_30 <=1 
C602: x20+x32-y20_32 <=1 
C603: x20+x35-y20_35 <=1 
C604: x20+x36-y20_36 <=1 
C605: x20+x39-y20_39 <=1 
C606: x20+x40 <=1 
C607: x20+x41-y20_41 <=1 
C608: x20+x45 <=1 
C609: x20+x47 <=1 
C610: x20+x49 <=1 
C611: x20+x51-y20_51 <=1 
C612: x20+x53-y20_53 <=1 
C613: x20+x55 <=1 
C614: x20+x56-y20_56 <=1 
C615: x20+x58-y20_58 <=1 
C616: x20+x59-y20_59 <=1 
C617: x21+x23-y21_23 <=1 
C618: x21+x24-y21_24 <=1 
C619: x21+x25-y21_25 <=1 
C620: x21+x26 <=1 
C621: x21+x27 <=1 
C622: x21+x29 <=1 
C623: x21+x31-y21_31 <=1 
C624: x21+x32-y21_32 <=1 
C625: x21+x33-y21_33 <=1 
C626: x21+x34-y21_34 <=1 
C627: x21+x35-y21_35 <=1 
C628: x21+x36 <=1 
C629: x21+x39-y21_39 <=1 
C630: x21+x40 <=1 
C631: x21+x42-y21_42 <=1 
C632: x21+x43-y21_43 <=1 
C633: x21+x44-y21_44 <=1 
C634: x21+x45 <=1 
C635: x21+x46-y21_46 <=1 
C636: x21+x47 <=1 
C637: x21+x50-y21_50 <=1 
C638: x21+x51-y21_51 <=1 
C639: x21+x55 <=1 
C640: x21+x57 <=1 
C641: x21+x58 <=1 
C642: x21+x59 <=1 
C643: x22+x24 <=1 
C644: x22+x27 <=1 
C645: x22+x28 <=1 
C646: x22+x29 <=1 
C647: x22+x30 <=1 
C648: x22+x32 <=1 
C649: x22+x34 <=1 
C650: x22+x35 <=1 
C651: x22+x36 <=1 
C652: x22+x37-y22_37 <=1 
C653: x22+x38-y22_38 <=1 
C654: x22+x41 <=1 
C655: x22+x42-y22_42 <=1 
C656: x22+x45 <=1 
C657: x22+x48 <=1 
C658: x22+x50-y22_50 <=1 
C659: x22+x51-y22_51 <=1 
C660: x22+x52 <=1 
C661: x22+x55 <=1 
C662: x22+x56-y22_56 <=1 
C663: x23+x24 <=1 
C664: x23+x25 <=1 
C665: x23+x27-y23_27 <=1 
C666: x23+x30-y23_30 <=1 
C667: x23+x33 <=1 
C668: x23+x36 <=1 
C669: x23+x37-y23_37 <=1 
C670: x23+x40 <=1 
C671: x23+x41-y23_41 <=1 
C672: x23+x44-y23_44 <=1 
C673: x23+x46-y23_46 <=1 
C674: x23+x48 <=1 
C675: x23+x49 <=1 
C676: x23+x55-y23_55 <=1 
C677: x23+x58 <=1 
C678: x24+x26-y24_26 <=1 
C679: x24+x28-y24_28 <=1 
C680: x24+x29 <=1 
C681: x24+x31 <=1 
C682: x24+x32-y24_32 <=1 
C683: x24+x35 <=1 
C684: x24+x36 <=1 
C685: x24+x38 <=1 
C686: x24+x39 <=1 
C687: x24+x40 <=1 
C688: x24+x41 <=1 
C689: x24+x43 <=1 
C690: x24+x44 <=1 
C691: x24+x45 <=1 
C692: x24+x47-y24_47 <=1 
C693: x24+x48 <=1 
C694: x24+x52-y24_52 <=1 
C695: x24+x54 <=1 
C696: x24+x56-y24_56 <=1 
C697: x24+x58-y24_58 <=1 
C698: x24+x59 <=1 
C699: x25+x26-y25_26 <=1 
C700: x25+x28 <=1 
C701: x25+x29-y25_29 <=1 
C702: x25+x30 <=1 
C703: x25+x32-y25_32 <=1 
C704: x25+x33 <=1 
C705: x25+x34 <=1 
C706: x25+x35 <=1 
C707: x25+x36 <=1 
C708: x25+x38-y25_38 <=1 
C709: x25+x39 <=1 
C710: x25+x44 <=1 
C711: x25+x45-y25_45 <=1 
C712: x25+x48-y25_48 <=1 
C713: x25+x50 <=1 
C714: x25+x53-y25_53 <=1 
C715: x25+x54 <=1 
C716: x25+x56-y25_56 <=1 
C717: x25+x57-y25_57 <=1 
C718: x25+x59-y25_59 <=1 
C719: x26+x27-y26_27 <=1 
C720: x26+x29-y26_29 <=1 
C721: x26+x31-y26_31 <=1 
C722: x26+x32 <=1 
C723: x26+x33 <=1 
C724: x26+x34 <=1 
C725: x26+x37 <=1 
C726: x26+x38-y26_38 <=1 
C727: x26+x39 <=1 
C728: x26+x40-y26_40 <=1 
C729: x26+x41-y26_41 <=1 
C730: x26+x50 <=1 
C731: x26+x51-y26_51 <=1 
C732: x26+x52-y26_52 <=1 
C733: x26+x57-y26_57 <=1 
C734: x26+x58-y26_58 <=1 
C735: x27+x29-y27_29 <=1 
C736: x27+x31 <=1 
C737: x27+x34 <=1 
C738: x27+x36-y27_36 <=1 
C739: x27+x40 <=1 
C740: x27+x52 <=1 
C741: x27+x53-y27_53 <=1 
C742: x27+x54-y27_54 <=1 
C743: x27+x58 <=1 
C744: x28+x33-y28_33 <=1 
C745: x28+x34-y28_34 <=1 
C746: x28+x35 <=1 
C747: x28+x36 <=1 
C748: x28+x37 <=1 
C749: x28+x38-y28_38 <=1 
C750: x28+x39 <=1 
C751: x28+x41-y28_41 <=1 
C752: x28+x42 <=1 
C753: x28+x43 <=1 
C754: x28+x46 <=1 
C755: x28+x48 <=1 
C756: x28+x50-y28_50 <=1 
C757: x28+x54 <=1 
C758: x28+x55-y28_55 <=1 
C759: x28+x56 <=1 
C760: x28+x57-y28_57 <=1 
C761: x28+x59-y28_59 <=1 
C762: x29+x30 <=1 
C763: x29+x32 <=1 
C764: x29+x33 <=1 
C765: x29+x34-y29_34 <=1 
C766: x29+x35 <=1 
C767: x29+x38-y29_38 <=1 
C768: x29+x39-y29_39 <=1 
C769: x29+x40 <=1 
C770: x29+x42-y29_42 <=1 
C771: x29+x43 <=1 
C772: x29+x44-y29_44 <=1 
C773: x29+x46-y29_46 <=1 
C774: x29+x48-y29_48 <=1 
C775: x29+x49 <=1 
C776: x29+x51-y29_51 <=1 
C777: x29+x52 <=1 
C778: x29+x56-y29_56 <=1 
C779: x29+x57-y29_57 <=1 
C780: x29+x58 <=1 
C781: x30+x32-y30_32 <=1 
C782: x30+x33 <=1 
C783: x30+x34-y30_34 <=1 
C784: x30+x36 <=1 
C785: x30+x37-y30_37 <=1 
C786: x30+x38 <=1 
C787: x30+x40-y30_40 <=1 
C788: x30+x41 <=1 
C789: x30+x42-y30_42 <=1 
C790: x30+x43 <=1 
C791: x30+x46 <=1 
C792: x30+x48 <=1 
C793: x30+x49 <=1 
C794: x30+x51 <=1 
C795: x30+x52 <=1 
C796: x30+x53 <=1 
C797: x30+x54 <=1 
C798: x30+x55 <=1 
C799: x30+x56 <=1 
C800: x30+x57-y30_57 <=1 
C801: x31+x33-y31_33 <=1 
C802: x31+x34 <=1 
C803: x31+x35 <=1 
C804: x31+x37 <=1 
C805: x31+x41-y31_41 <=1 
C806: x31+x42 <=1 
C807: x31+x43 <=1 
C808: x31+x44-y31_44 <=1 
C809: x31+x45 <=1 
C810: x31+x47 <=1 
C811: x31+x51 <=1 
C812: x31+x56-y31_56 <=1 
C813: x31+x57-y31_57 <=1 
C814: x31+x59 <=1 
C815: x32+x34-y32_34 <=1 
C816: x32+x35-y32_35 <=1 
C817: x32+x36 <=1 
C818: x32+x37-y32_37 <=1 
C819: x32+x38 <=1 
C820: x32+x41-y32_41 <=1 
C821: x32+x43-y32_43 <=1 
C822: x32+x44 <=1 
C823: x32+x46-y32_46 <=1 
C824: x32+x47-y32_47 <=1 
C825: x32+x48-y32_48 <=1 
C826: x32+x51-y32_51 <=1 
C827: x32+x52 <=1 
C828: x32+x54-y32_54 <=1 
C829: x32+x55 <=1 
C830: x32+x56 <=1 
C831: x32+x58-y32_58 <=1 
C832: x33+x34 <=1 
C833: x33+x36 <=1 
C834: x33+x37-y33_37 <=1 
C835: x33+x38 <=1 
C836: x33+x39-y33_39 <=1 
C837: x33+x42 <=1 
C838: x33+x44 <=1 
C839: x33+x45-y33_45 <=1 
C840: x33+x48-y33_48 <=1 
C841: x33+x49 <=1 
C842: x33+x51-y33_51 <=1 
C843: x33+x52-y33_52 <=1 
C844: x33+x53 <=1 
C845: x33+x54 <=1 
C846: x33+x55 <=1 
C847: x33+x56 <=1 
C848: x33+x57-y33_57 <=1 
C849: x33+x59-y33_59 <=1 
C850: x34+x35-y34_35 <=1 
C851: x34+x37-y34_37 <=1 
C852: x34+x39 <=1 
C853: x34+x40-y34_40 <=1 
C854: x34+x42 <=1 
C855: x34+x45-y34_45 <=1 
C856: x34+x46-y34_46 <=1 
C857: x34+x48-y34_48 <=1 
C858: x34+x50 <=1 
C859: x34+x52-y34_52 <=1 
C860: x34+x53-y34_53 <=1 
C861: x34+x56 <=1 
C862: x34+x57 <=1 
C863: x34+x58 <=1 
C864: x35+x37-y35_37 <=1 
C865: x35+x38 <=1 
C866: x35+x39 <=1 
C867: x35+x41-y35_41 <=1 
C868: x35+x42-y35_42 <=1 
C869: x35+x43-y35_43 <=1 
C870: x35+x44-y35_44 <=1 
C871: x35+x45-y35_45 <=1 
C872: x35+x48-y35_48 <=1 
C873: x35+x49-y35_49 <=1 
C874: x35+x51-y35_51 <=1 
C875: x35+x53-y35_53 <=1 
C876: x35+x54 <=1 
C877: x35+x56 <=1 
C878: x35+x57 <=1 
C879: x35+x58 <=1 
C880: x35+x59-y35_59 <=1 
C881: x36+x41 <=1 
C882: x36+x46-y36_46 <=1 
C883: x36+x48 <=1 
C884: x36+x49 <=1 
C885: x36+x50-y36_50 <=1 
C886: x36+x51-y36_51 <=1 
C887: x36+x55 <=1 
C888: x36+x57-y36_57 <=1 
C889: x36+x59 <=1 
C890: x37+x40 <=1 
C891: x37+x41 <=1 
C892: x37+x43-y37_43 <=1 
C893: x37+x47 <=1 
C894: x37+x48 <=1 
C895: x37+x50 <=1 
C896: x37+x51-y37_51 <=1 
C897: x37+x55-y37_55 <=1 
C898: x37+x57-y37_57 <=1 
C899: x37+x58-y37_58 <=1 
C900: x37+x59 <=1 
C901: x38+x41 <=1 
C902: x38+x42-y38_42 <=1 
C903: x38+x46 <=1 
C904: x38+x47 <=1 
C905: x38+x50-y38_50 <=1 
C906: x38+x51-y38_51 <=1 
C907: x38+x53 <=1 
C908: x38+x55-y38_55 <=1 
C909: x38+x56-y38_56 <=1 
C910: x38+x58-y38_58 <=1 
C911: x39+x40-y39_40 <=1 
C912: x39+x41 <=1 
C913: x39+x42 <=1 
C914: x39+x43 <=1 
C915: x39+x44 <=1 
C916: x39+x45 <=1 
C917: x39+x47-y39_47 <=1 
C918: x39+x48 <=1 
C919: x39+x49-y39_49 <=1 
C920: x39+x51-y39_51 <=1 
C921: x39+x54 <=1 
C922: x39+x55-y39_55 <=1 
C923: x39+x58 <=1 
C924: x39+x59 <=1 
C925: x40+x44-y40_44 <=1 
C926: x40+x46 <=1 
C927: x40+x54-y40_54 <=1 
C928: x40+x55-y40_55 <=1 
C929: x40+x58-y40_58 <=1 
C930: x40+x59-y40_59 <=1 
C931: x41+x42 <=1 
C932: x41+x43 <=1 
C933: x41+x44 <=1 
C934: x41+x45 <=1 
C935: x41+x47-y41_47 <=1 
C936: x41+x48-y41_48 <=1 
C937: x41+x49-y41_49 <=1 
C938: x41+x52-y41_52 <=1 
C939: x41+x53 <=1 
C940: x41+x54-y41_54 <=1 
C941: x41+x55 <=1 
C942: x41+x57 <=1 
C943: x41+x58 <=1 
C944: x41+x59 <=1 
C945: x42+x43-y42_43 <=1 
C946: x42+x45-y42_45 <=1 
C947: x42+x46-y42_46 <=1 
C948: x42+x47 <=1 
C949: x42+x51 <=1 
C950: x42+x52-y42_52 <=1 
C951: x42+x53-y42_53 <=1 
C952: x42+x54-y42_54 <=1 
C953: x42+x55 <=1 
C954: x42+x58 <=1 
C955: x42+x59-y42_59 <=1 
C956: x43+x44-y43_44 <=1 
C957: x43+x45 <=1 
C958: x43+x46-y43_46 <=1 
C959: x43+x47 <=1 
C960: x43+x50 <=1 
C961: x43+x51 <=1 
C962: x43+x56-y43_56 <=1 
C963: x43+x58 <=1 
C964: x43+x59-y43_59 <=1 
C965: x44+x46-y44_46 <=1 
C966: x44+x49 <=1 
C967: x44+x50 <=1 
C968: x44+x52-y44_52 <=1 
C969: x44+x53-y44_53 <=1 
C970: x44+x54-y44_54 <=1 
C971: x44+x56-y44_56 <=1 
C972: x44+x58-y44_58 <=1 
C973: x45+x46-y45_46 <=1 
C974: x45+x47-y45_47 <=1 
C975: x45+x48-y45_48 <=1 
C976: x45+x50 <=1 
C977: x45+x52-y45_52 <=1 
C978: x45+x57-y45_57 <=1 
C979: x45+x58-y45_58 <=1 
C980: x45+x59-y45_59 <=1 
C981: x46+x47 <=1 
C982: x46+x48-y46_48 <=1 
C983: x46+x49 <=1 
C984: x46+x51-y46_51 <=1 
C985: x46+x53-y46_53 <=1 
C986: x46+x54-y46_54 <=1 
C987: x46+x55 <=1 
C988: x46+x57 <=1 
C989: x47+x48 <=1 
C990: x47+x49-y47_49 <=1 
C991: x47+x50 <=1 
C992: x47+x53 <=1 
C993: x47+x56-y47_56 <=1 
C994: x47+x57-y47_57 <=1 
C995: x47+x59-y47_59 <=1 
C996: x48+x49-y48_49 <=1 
C997: x48+x50-y48_50 <=1 
C998: x48+x51 <=1 
C999: x48+x54-y48_54 <=1 
C1000: x48+x55-y48_55 <=1 
C1001: x48+x58 <=1 
C1002: x48+x59-y48_59 <=1 
C1003: x49+x51 <=1 
C1004: x49+x53 <=1 
C1005: x49+x54 <=1 
C1006: x49+x57-y49_57 <=1 
C1007: x49+x58 <=1 
C1008: x49+x59-y49_59 <=1 
C1009: x50+x51-y50_51 <=1 
C1010: x50+x52-y50_52 <=1 
C1011: x50+x54 <=1 
C1012: x50+x56-y50_56 <=1 
C1013: x50+x57-y50_57 <=1 
C1014: x50+x58-y50_58 <=1 
C1015: x51+x52-y51_52 <=1 
C1016: x51+x54-y51_54 <=1 
C1017: x52+x53 <=1 
C1018: x52+x54 <=1 
C1019: x52+x55-y52_55 <=1 
C1020: x52+x59-y52_59 <=1 
C1021: x53+x55 <=1 
C1022: x53+x56 <=1 
C1023: x53+x58 <=1 
C1024: x54+x56-y54_56 <=1 
C1025: x54+x59 <=1 
C1026: x55+x56-y55_56 <=1 
C1027: x55+x58 <=1 
C1028: x55+x59-y55_59 <=1 
C1029: x56+x57 <=1 
C1030: x56+x59-y56_59 <=1 
C1031: x57+x58 <=1 

binary
x0
x1
x2
x3
x4
x5
x6
x7
x8
x9
x10
x11
x12
x13
x14
x15
x16
x17
x18
x19
x20
x21
x22
x23
x24
x25
x26
x27
x28
x29
x30
x31
x32
x33
x34
x35
x36
x37
x38
x39
x40
x41
x42
x43
x44
x45
x46
x47
x48
x49
x50
x51
x52
x53
x54
x55
x56
x57
x58
x59
