problem_generation/data/GISP/train/er_n=60_m=1031_p=0.60_SET2_setparam=100.00_alpha=0.50_616.sol
objective value:                                 1180
x23                                                 1 	(obj:100)
x26                                                 1 	(obj:100)
x27                                                 1 	(obj:100)
x28                                                 1 	(obj:100)
x29                                                 1 	(obj:100)
x44                                                 1 	(obj:100)
x45                                                 1 	(obj:100)
x47                                                 1 	(obj:100)
x51                                                 1 	(obj:100)
x55                                                 1 	(obj:100)
x57                                                 1 	(obj:100)
x59                                                 1 	(obj:100)
y47_57                                              1 	(obj:-1)
y28_57                                              1 	(obj:-1)
y29_44                                              1 	(obj:-1)
y26_57                                              1 	(obj:-1)
y45_57                                              1 	(obj:-1)
y26_29                                              1 	(obj:-1)
y45_47                                              1 	(obj:-1)
y26_51                                              1 	(obj:-1)
y29_57                                              1 	(obj:-1)
y55_59                                              1 	(obj:-1)
y47_59                                              1 	(obj:-1)
y28_55                                              1 	(obj:-1)
y28_59                                              1 	(obj:-1)
y29_51                                              1 	(obj:-1)
y23_55                                              1 	(obj:-1)
y23_27                                              1 	(obj:-1)
y27_29                                              1 	(obj:-1)
y23_44                                              1 	(obj:-1)
y45_59                                              1 	(obj:-1)
y26_27                                              1 	(obj:-1)
